Set parameter TokenServer to value "hpc-licenses.hpcc.usc.edu"
Set parameter TimeLimit to value 3600
Gurobi Optimizer version 9.5.1 build v9.5.1rc2 (linux64)
Thread count: 20 physical cores, 20 logical processors, using up to 20 threads
Optimize a model with 6007 rows, 4529 columns and 24534 nonzeros
Model fingerprint: 0x579f878b
Variable types: 4506 continuous, 23 integer (23 binary)
Coefficient statistics:
  Matrix range     [1e+00, 1e+00]
  Objective range  [3e-03, 1e+00]
  Bounds range     [1e+00, 1e+00]
  RHS range        [1e+00, 1e+02]
Presolve removed 1520 rows and 1515 columns
Presolve time: 0.06s
Presolved: 4487 rows, 3014 columns, 21975 nonzeros
Variable types: 2994 continuous, 20 integer (20 binary)
Found heuristic solution: objective 223.7710812

Root relaxation: objective 2.334142e+02, 3019 iterations, 0.11 seconds (0.13 work units)

    Nodes    |    Current Node    |     Objective Bounds      |     Work
 Expl Unexpl |  Obj  Depth IntInf | Incumbent    BestBd   Gap | It/Node Time

     0     0  233.41423    0    2  223.77108  233.41423  4.31%     -    0s
     0     0  233.23847    0    3  223.77108  233.23847  4.23%     -    0s
     0     0  233.15575    0    2  223.77108  233.15575  4.19%     -    0s
     0     0  233.15136    0    2  223.77108  233.15136  4.19%     -    0s
     0     0  233.01689    0    4  223.77108  233.01689  4.13%     -    0s
     0     0  232.98719    0    4  223.77108  232.98719  4.12%     -    0s
H    0     0                     232.5451839  232.96029  0.18%     -    0s
     0     0  232.96029    0    4  232.54518  232.96029  0.18%     -    0s
     0     0  232.72720    0    4  232.54518  232.72720  0.08%     -    0s
     0     0  232.71447    0    4  232.54518  232.71447  0.07%     -    0s
     0     0  232.71447    0    2  232.54518  232.71447  0.07%     -    1s
     0     0  232.71447    0    4  232.54518  232.71447  0.07%     -    1s
     0     0  232.71447    0    4  232.54518  232.71447  0.07%     -    2s
     0     0  232.71447    0    4  232.54518  232.71447  0.07%     -    2s

Cutting planes:
  Gomory: 6
  MIR: 787
  Flow cover: 2
  RLT: 12
  Relax-and-lift: 23

Explored 1 nodes (5978 simplex iterations) in 2.24 seconds (0.94 work units)
Thread count was 20 (of 20 available processors)

Solution count 2: 232.545 223.771 

Optimal solution found (tolerance 1.00e-04)
Best objective 2.325451839286e+02, best bound 2.325451839286e+02, gap 0.0000%



#########node  1
V1.7
#########node  2
0.07894736842105263,0.9210526315789473
#########node  3
1.0,0.0


Total Solving Time 2.6426682472229004
obj value 232.54518392861274
Policy Regret train (Sum) 4.147362670960024
Best Treatment Found train (%) 70.19999999999999
treatment classification acc train (%) 25.2
Policy Regret test (Sum) 63.74597884426457
Best Treatment Found test (%) 73.06
treatment classification acc test (%) 25.95
